Please solve the following SAT Problem encoded in DIMACS format, provide line of thoughts, write your final answer as a single solution at the end of response with header 'answer: ' : 
p cnf 10 55
8 -2 6 0
7 1 -4 0
-2 8 -6 0
-7 -9 8 0
8 -6 3 0
8 -10 -4 0
-8 3 -5 0
-5 8 -2 0
8 3 -1 0
-10 -6 3 0
-1 -6 -2 0
3 -4 -5 0
-2 -1 4 0
7 8 -4 0
3 4 -9 0
2 -4 -10 0
-10 3 -5 0
2 -5 8 0
3 -10 1 0
7 8 -10 0
-2 -7 -1 0
-1 -4 -9 0
8 -10 -6 0
-1 -9 3 0
3 -9 7 0
-5 4 6 0
7 3 -8 0
-10 -9 -4 0
-6 -10 -5 0
3 -2 7 0
-6 -9 -7 0
-6 3 -10 0
-5 7 -10 0
8 -2 3 0
7 -5 8 0
7 -9 4 0
-1 -5 -4 0
-9 -4 8 0
-6 7 4 0
4 -10 9 0
-1 -9 -6 0
-1 -7 8 0
-2 -5 10 0
-5 -7 -4 0
6 -4 -10 0
-4 3 -1 0
-6 -5 -3 0
8 4 -2 0
4 2 -1 0
-4 10 -2 0
5 -9 -6 0
3 7 -2 0
-10 -4 6 0
-9 -6 -2 0
-6 7 -5 0

